6 24 4 10
20 13 5 4 10 1 13 10 1 16 18 10 13 5 6 14 2 16 2 4 3 11 18 10 
14.84 12.86 11.39 5.6 5.52 12.13 4.28 13.65 5.59 4.98 7.93 5.85 10.88 12.71 4.19 4.37 15.85 6.05 9.37 13.18 6.04 11.31 5.83 12.95 
14.36 1.49 5.72 0.95 8.61 14.91 1.51 2.94 13.62 9.72 1.26 4.48 5.66 1.29 5.5 5.49 5.42 5.89 2.38 14.21 2.25 8.7 0.69 2.15 
1.57 13.1 9.86 15.33 7.47 10.89 6.71 11.95 11.09 14.44 1.5 12.83 0.44 0.61 12.03 6.95 1.33 11.47 13.58 7.98 2.99 15.3 7.07 15.71 
3.55 10.22 10.33 8.68 1.6 7.9 15.77 2.89 3.16 13.46 2.1 11.47 15.01 3.9 6.79 4.8 14.6 15.23 5.39 5.24 15.12 15.5 7.83 7.71 
8 8 8 8 8 8 8 8 8 8 8 8 8 8 8 8 8 8 8 8 8 8 8 8 
5.39 0.57 9.13 0.12 2.12 2.28 9.08 9.48 0.2 5.57 11.75 9.87 5.81 5.48 2.66 0.07 2.25 6.33 5.89 13.21 9.62 10.82 3.11 10.53 
1 1 1 1 1 1 1 1 1 1 1 1 1 1 1 1 1 1 1 1 1 1 1 1 
1 1 1 1 1 1 1 1 1 1 1 1 1 1 1 1 1 1 1 1 1 1 1 1 
1 1 1 1 1 1 1 1 1 1 1 1 1 1 1 1 1 1 1 1 1 1 1 1 
1 1 1 1 1 1 1 1 1 1 1 1 1 1 1 1 1 1 1 1 1 1 1 1 
1 1 1 1 1 1 1 1 1 1 1 1 1 1 1 1 1 1 1 1 1 1 1 1 
1 1 1 1 1 1 1 1 1 1 1 1 1 1 1 1 1 1 1 1 1 1 1 1 
0.01 0.01 0.01 0.01 0.01 0.01 0.01 0.01 0.01 0.01 0.01 0.01 0.01 0.01 0.01 0.01 0.01 0.01 0.01 0.01 0.01 0.01 0.01 0.01 
0.02 0.02 0.02 0.02 0.02 0.02 0.02 0.02 0.02 0.02 0.02 0.02 0.02 0.02 0.02 0.02 0.02 0.02 0.02 0.02 0.02 0.02 0.02 0.02 
0.03 0.03 0.03 0.03 0.03 0.03 0.03 0.03 0.03 0.03 0.03 0.03 0.03 0.03 0.03 0.03 0.03 0.03 0.03 0.03 0.03 0.03 0.03 0.03 
0.04 0.04 0.04 0.04 0.04 0.04 0.04 0.04 0.04 0.04 0.04 0.04 0.04 0.04 0.04 0.04 0.04 0.04 0.04 0.04 0.04 0.04 0.04 0.04 
0.05 0.05 0.05 0.05 0.05 0.05 0.05 0.05 0.05 0.05 0.05 0.05 0.05 0.05 0.05 0.05 0.05 0.05 0.05 0.05 0.05 0.05 0.05 0.05 
1 1 1 1 1 1 1 1 1 1 1 1 1 1 1 1 1 1 1 1 1 1 1 1 
